1721
3443
3826
1256
980
903
2998
514
1354
4194
2197
3663
1742
1635
3071
2832
1581
929
3753
2108
2818
3233
3502
1103
2693
701
478
1216
2522
1526
2917
2029
2910
1610
3172
3628
2425
2394
3229
659
2160
4320
1723
3000
4176
2677
2160
1511
1488
3955
280
744
4146
1355
2064
3592
3390
3538
3175
3960
4093
3226
3304
4083
2423
1125
3082
4064
2131
740
315
1200
572
3650
1334
2170
3806
3904
956
3550
3593
2307
3552
1748
2017
681
2743
4379
1401
3266
385
1445
2374
3601
3086
220
1901
792
684
1779
